(declare-fun a () Real)
(declare-fun b () Real)
(declare-fun c () Real)
(declare-fun d () Real)
(declare-fun e () Real)
(declare-fun f () Real)
(declare-fun g () Real)
(declare-fun h () Real)
(assert (exists ((i Real)) (or (= (/ d g) 1) (< (+ (* (/ b c) (/ 1 h h)) (* (+ (/ 2 b c) h f) (+ (/ 3 b) h f))) (/ a e)))))
(check-sat)
